(set-logic ALL)
(declare-fun var0 () String)
(assert (str.in_re var0 (re.++ (re.+ (re.* (str.to_re "000"))) (re.++ (re.* (re.union (str.to_re "1") (str.to_re "22"))) (re.++ (re.+ (re.union (str.to_re "33") (str.to_re "44"))) (re.++ (re.union (re.+ (str.to_re "5")) (re.+ (str.to_re "6"))) (re.++ (re.+ (re.* (str.to_re "77"))) (re.++ (re.+ (re.+ (str.to_re "888"))) (re.++ (re.+ (re.+ (str.to_re "99"))) (re.++ (re.union (re.* (str.to_re "aaa")) (re.* (str.to_re "b"))) (re.++ (re.* (re.* (str.to_re "cc"))) (re.++ (re.* (re.union (str.to_re "dd") (str.to_re "ee"))) (re.++ (re.+ (re.* (str.to_re "ff"))) (re.++ (re.union (re.+ (str.to_re "ggg")) (re.+ (str.to_re "hhh"))) (re.++ (re.union (re.+ (str.to_re "ii")) (re.+ (str.to_re "jj"))) (re.++ (re.* (re.+ (str.to_re "kk"))) (re.++ (re.union (re.* (str.to_re "lll")) (re.* (str.to_re "mm"))) (re.++ (re.+ (re.+ (str.to_re "nnn"))) (re.++ (re.+ (re.union (str.to_re "oo") (str.to_re "p"))) (re.++ (re.+ (re.+ (str.to_re "q"))) (re.++ (re.union (re.union (str.to_re "r") (str.to_re "ss")) (re.union (str.to_re "ttt") (str.to_re "u"))) (re.++ (re.* (re.+ (str.to_re "vv"))) (re.++ (re.+ (re.* (str.to_re "ww"))) (re.++ (re.+ (re.* (str.to_re "xx"))) (re.++ (re.+ (re.+ (str.to_re "yyy"))) (re.++ (re.+ (re.union (str.to_re "z") (str.to_re "AA"))) (re.++ (re.+ (re.union (str.to_re "BB") (str.to_re "CC"))) (re.++ (re.union (re.union (str.to_re "D") (str.to_re "E")) (re.union (str.to_re "FF") (str.to_re "G"))) (re.++ (re.union (re.* (str.to_re "HHH")) (re.* (str.to_re "II"))) (re.++ (re.* (re.union (str.to_re "JJJ") (str.to_re "KK"))) (re.++ (re.* (re.+ (str.to_re "LL"))) (re.++ (re.+ (re.+ (str.to_re "MM"))) (re.++ (re.union (re.+ (str.to_re "N")) (re.+ (str.to_re "OO"))) (re.++ (re.* (re.* (str.to_re "P"))) (re.++ (re.* (re.union (str.to_re "QQQ") (str.to_re "RR"))) (re.++ (re.+ (re.* (str.to_re "SS"))) (re.++ (re.+ (re.* (str.to_re "TTT"))) (re.++ (re.* (re.* (str.to_re "UU"))) (re.++ (re.* (re.* (str.to_re "VVV"))) (re.++ (re.+ (re.+ (str.to_re "W"))) (re.++ (re.+ (re.union (str.to_re "XXX") (str.to_re "Y"))) (re.++ (re.+ (re.union (str.to_re "Z") (str.to_re "!!"))) (re.++ (re.+ (re.union (str.to_re """""""") (str.to_re "###"))) (re.++ (re.+ (re.* (str.to_re "$"))) (re.++ (re.* (re.union (str.to_re "%%") (str.to_re "&&"))) (re.++ (re.* (re.* (str.to_re "'"))) (re.++ (re.+ (re.union (str.to_re "(((") (str.to_re ")))"))) (re.++ (re.union (re.+ (str.to_re "*")) (re.+ (str.to_re "+"))) (re.++ (re.* (re.union (str.to_re ",,") (str.to_re "-"))) (re.++ (re.+ (re.+ (str.to_re "."))) (re.++ (re.union (re.* (str.to_re "/")) (re.* (str.to_re ":"))) (re.++ (re.* (re.+ (str.to_re ";;;"))) (re.++ (re.* (re.union (str.to_re "<<<") (str.to_re "==="))) (re.++ (re.union (re.+ (str.to_re ">")) (re.+ (str.to_re "???"))) (re.++ (re.union (re.+ (str.to_re "@")) (re.+ (str.to_re "[[["))) (re.++ (re.* (re.union (str.to_re "\\\\\\") (str.to_re "]]]"))) (re.++ (re.* (re.+ (str.to_re "^"))) (re.++ (re.* (re.+ (str.to_re "_"))) (re.++ (re.* (re.union (str.to_re "```") (str.to_re "{{"))) (re.++ (re.* (re.+ (str.to_re "||"))) (re.++ (re.+ (re.+ (str.to_re "}"))) (re.++ (re.+ (re.+ (str.to_re "~"))) (re.++ (re.union (re.* (str.to_re "00")) (re.* (str.to_re "111"))) (re.++ (re.* (re.* (str.to_re "222"))) (re.++ (re.union (re.+ (str.to_re "333")) (re.+ (str.to_re "4"))) (re.++ (re.* (re.* (str.to_re "555"))) (re.++ (re.+ (re.union (str.to_re "6") (str.to_re "777"))) (re.++ (re.union (re.+ (str.to_re "888")) (re.+ (str.to_re "999"))) (re.++ (re.union (re.+ (str.to_re "aaa")) (re.+ (str.to_re "bbb"))) (re.++ (re.+ (re.+ (str.to_re "ccc"))) (re.++ (re.+ (re.union (str.to_re "ddd") (str.to_re "ee"))) (re.++ (re.+ (re.* (str.to_re "f"))) (re.++ (re.union (re.union (str.to_re "ggg") (str.to_re "h")) (re.union (str.to_re "ii") (str.to_re "jjj"))) (re.++ (re.* (re.union (str.to_re "k") (str.to_re "ll"))) (re.++ (re.+ (re.union (str.to_re "mmm") (str.to_re "n"))) (re.++ (re.+ (re.* (str.to_re "oo"))) (re.++ (re.+ (re.* (str.to_re "p"))) (re.++ (re.* (re.* (str.to_re "qq"))) (re.++ (re.union (re.+ (str.to_re "rrr")) (re.+ (str.to_re "ss"))) (re.++ (re.+ (re.union (str.to_re "tt") (str.to_re "uuu"))) (re.++ (re.* (re.union (str.to_re "vv") (str.to_re "w"))) (re.++ (re.union (re.union (str.to_re "x") (str.to_re "yyy")) (re.union (str.to_re "zzz") (str.to_re "AAA"))) (re.++ (re.+ (re.+ (str.to_re "BBB"))) (re.++ (re.union (re.union (str.to_re "C") (str.to_re "DD")) (re.union (str.to_re "E") (str.to_re "FF"))) (re.++ (re.+ (re.+ (str.to_re "GG"))) (re.++ (re.* (re.+ (str.to_re "HHH"))) (re.++ (re.+ (re.union (str.to_re "II") (str.to_re "J"))) (re.++ (re.union (re.union (str.to_re "KKK") (str.to_re "LL")) (re.union (str.to_re "MM") (str.to_re "N"))) (re.++ (re.union (re.* (str.to_re "OO")) (re.* (str.to_re "PPP"))) (re.++ (re.+ (re.union (str.to_re "Q") (str.to_re "RR"))) (re.++ (re.* (re.+ (str.to_re "S"))) (re.++ (re.* (re.union (str.to_re "TTT") (str.to_re "U"))) (re.++ (re.union (re.+ (str.to_re "V")) (re.+ (str.to_re "W"))) (re.++ (re.* (re.union (str.to_re "XX") (str.to_re "Y"))) (re.++ (re.* (re.+ (str.to_re "ZZ"))) (re.++ (re.* (re.+ (str.to_re "!!"))) (re.++ (re.* (re.union (str.to_re """""""") (str.to_re "##"))) (re.++ (re.+ (re.* (str.to_re "$$$"))) (re.++ (re.union (re.* (str.to_re "%%%")) (re.* (str.to_re "&&"))) (re.++ (re.* (re.union (str.to_re "''") (str.to_re "(("))) (re.++ (re.* (re.union (str.to_re "))") (str.to_re "*"))) (re.++ (re.union (re.+ (str.to_re "++")) (re.+ (str.to_re ","))) (re.++ (re.+ (re.union (str.to_re "---") (str.to_re ".."))) (re.++ (re.* (re.+ (str.to_re "///"))) (re.++ (re.union (re.union (str.to_re "::") (str.to_re ";")) (re.union (str.to_re "<<") (str.to_re "="))) (re.++ (re.+ (re.union (str.to_re ">>") (str.to_re "??"))) (re.++ (re.* (re.union (str.to_re "@@") (str.to_re "[["))) (re.++ (re.* (re.* (str.to_re "\\\\"))) (re.++ (re.union (re.* (str.to_re "]]]")) (re.* (str.to_re "^^"))) (re.++ (re.union (re.* (str.to_re "_")) (re.* (str.to_re "```"))) (re.++ (re.* (re.* (str.to_re "{{"))) (re.++ (re.+ (re.union (str.to_re "|") (str.to_re "}"))) (re.++ (re.union (re.* (str.to_re "~~~")) (re.* (str.to_re "00"))) (re.++ (re.+ (re.* (str.to_re "111"))) (re.++ (re.union (re.union (str.to_re "22") (str.to_re "3")) (re.union (str.to_re "444") (str.to_re "55"))) (re.++ (re.union (re.union (str.to_re "66") (str.to_re "77")) (re.union (str.to_re "888") (str.to_re "999"))) (re.++ (re.union (re.+ (str.to_re "a")) (re.+ (str.to_re "bbb"))) (re.++ (re.* (re.* (str.to_re "ccc"))) (re.++ (re.+ (re.union (str.to_re "d") (str.to_re "ee"))) (re.++ (re.+ (re.+ (str.to_re "ff"))) (re.++ (re.union (re.union (str.to_re "ggg") (str.to_re "hhh")) (re.union (str.to_re "i") (str.to_re "jj"))) (re.++ (re.* (re.union (str.to_re "kkk") (str.to_re "ll"))) (re.++ (re.union (re.* (str.to_re "mmm")) (re.* (str.to_re "nnn"))) (re.++ (re.* (re.union (str.to_re "oo") (str.to_re "p"))) (re.++ (re.* (re.union (str.to_re "qq") (str.to_re "rrr"))) (re.++ (re.+ (re.* (str.to_re "s"))) (re.++ (re.+ (re.* (str.to_re "t"))) (re.++ (re.union (re.+ (str.to_re "u")) (re.+ (str.to_re "vvv"))) (re.++ (re.* (re.union (str.to_re "ww") (str.to_re "xxx"))) (re.++ (re.union (re.union (str.to_re "yy") (str.to_re "zzz")) (re.union (str.to_re "AAA") (str.to_re "B"))) (re.++ (re.+ (re.+ (str.to_re "CCC"))) (re.++ (re.union (re.union (str.to_re "D") (str.to_re "E")) (re.union (str.to_re "FFF") (str.to_re "GGG"))) (re.++ (re.* (re.+ (str.to_re "HH"))) (re.++ (re.+ (re.+ (str.to_re "I"))) (re.++ (re.union (re.union (str.to_re "JJJ") (str.to_re "K")) (re.union (str.to_re "LL") (str.to_re "M"))) (re.++ (re.* (re.+ (str.to_re "NN"))) (re.++ (re.union (re.union (str.to_re "OO") (str.to_re "PPP")) (re.union (str.to_re "Q") (str.to_re "R"))) (re.++ (re.+ (re.+ (str.to_re "SSS"))) (re.++ (re.union (re.union (str.to_re "T") (str.to_re "UUU")) (re.union (str.to_re "VV") (str.to_re "W"))) (re.++ (re.* (re.* (str.to_re "XXX"))) (re.++ (re.+ (re.* (str.to_re "Y"))) (re.++ (re.union (re.* (str.to_re "Z")) (re.* (str.to_re "!"))) (re.++ (re.+ (re.* (str.to_re """"))) (re.++ (re.+ (re.* (str.to_re "###"))) (re.++ (re.union (re.* (str.to_re "$$$")) (re.* (str.to_re "%%"))) (re.++ (re.* (re.union (str.to_re "&") (str.to_re "'''"))) (re.++ (re.+ (re.union (str.to_re "(") (str.to_re ")"))) (re.++ (re.union (re.+ (str.to_re "**")) (re.+ (str.to_re "+++"))) (re.++ (re.+ (re.+ (str.to_re ",,"))) (re.+ (re.* (str.to_re "-"))))))))))))))))))))))))))))))))))))))))))))))))))))))))))))))))))))))))))))))))))))))))))))))))))))))))))))))))))))))))))))))))))))))))))))))))))))))))
(check-sat)